%nprocshared=8
%chk=equi.chk 
#p B3LYP/aug-cc-pVDZ Density=Current NoSymm

Trp DFT single point to obtain ESP grid

0 1
 C    -2.485   0.988  -0.540  
 O    -3.022  -0.087  -0.752  
 O    -3.260   2.140  -0.671  
 H    -4.149   1.853  -0.892  
 N    -0.696   1.883   1.190  
 C    -0.957   1.235  -0.150  
 H    -0.573   1.878  -0.929  
 C    -0.170  -0.114  -0.192  
 H    -0.523  -0.755   0.644  
 H    -0.431  -0.641  -1.135  
 C     1.331  -0.043  -0.136  
 C     2.116   1.083  -0.146  
 H     1.726   2.090  -0.143  
 N     3.443   0.720  -0.096  
 H     4.221   1.309  -0.067  
 C     3.544  -0.637  -0.046  
 C     2.230  -1.165  -0.069  
 C     2.049  -2.550  -0.023  
 H     1.059  -2.982  -0.038  
 C     3.177  -3.373   0.051  
 H     3.054  -4.445   0.094  
 C     4.661  -1.452   0.024  
 H     5.660  -1.040   0.045  
 C     4.461  -2.834   0.075  
 H     5.313  -3.495   0.135  
 H    -1.313   2.649   1.370  
 H    -0.516   1.200   1.898  

